% File represents an instance of a Composite Structure problem to be solved by a CP framework
% Created on 2025-03-26 10:41:46.347
T = 58;
n = 36;
m = 60;
edges = [(2, 1),
(8, 7),
(14, 13),
(19, 20),
(26, 25),
(32, 31),
(3, 2),
(9, 8),
(15, 14),
(21, 20),
(27, 26),
(33, 32),
(4, 3),
(10, 9),
(16, 15),
(22, 21),
(28, 27),
(34, 33),
(4, 5),
(10, 11),
(16, 17),
(22, 23),
(28, 29),
(35, 34),
(5, 6),
(11, 12),
(17, 18),
(24, 23),
(30, 29),
(35, 36),
(7, 1),
(13, 7),
(19, 13),
(19, 25),
(25, 31),
(8, 2),
(14, 8),
(14, 20),
(26, 20),
(26, 32),
(9, 3),
(15, 9),
(15, 21),
(27, 21),
(27, 33),
(10, 4),
(16, 10),
(16, 22),
(28, 22),
(28, 34),
(11, 5),
(17, 11),
(17, 23),
(29, 23),
(35, 29),
(12, 6),
(18, 12),
(24, 18),
(30, 24),
(36, 30)];
counts = [|12, 4, 12, 2,
|14, 4, 14, 2,
|16, 4, 16, 2,
|18, 6, 18, 2,
|16, 4, 16, 2,
|16, 2, 16, 2,
|14, 6, 14, 2,
|16, 6, 16, 2,
|18, 6, 18, 2,
|20, 6, 20, 4,
|18, 6, 18, 2,
|16, 4, 16, 2,
|16, 6, 16, 2,
|18, 6, 18, 2,
|18, 6, 18, 6,
|20, 6, 20, 8,
|20, 6, 20, 2,
|18, 6, 18, 2,
|18, 6, 18, 4,
|18, 2, 18, 2,
|18, 6, 18, 4,
|20, 6, 20, 6,
|20, 4, 20, 2,
|20, 6, 20, 2,
|18, 4, 18, 4,
|18, 6, 18, 4,
|20, 6, 20, 6,
|22, 6, 22, 8,
|22, 4, 22, 4,
|22, 6, 22, 4,
|16, 2, 16, 4,
|18, 4, 18, 4,
|20, 6, 20, 4,
|22, 6, 22, 6,
|22, 8, 22, 6,
|22, 8, 22, 4|];
